\ LP format - for model browsing. Use MPS format to capture full model detail.
Maximize
  45.94285714285714 z1 + 23.8 z2 + 39.42857142857144 z3
   + 13.94285714285715 z4 + 25.45714285714286 z5 + 23 z6
   + 18.85714285714285 z7 + 10.65714285714285 z8 + 18 z9
   + 32.02857142857143 z10 + 11.05714285714286 z11 + 45.91428571428571 z12
   + 20 z13 + 32 z14 + 41 z15 + 37.45714285714286 z16
   + 34.48571428571428 z17 + 40.22857142857143 z18 + 48 z19
   + 39.37142857142857 z20
Subject To
 constraint1: 47 z1 + 24 z2 + 41 z3 + 14 z4 + 26 z5 + 23 z6 + 19 z7 + 11 z8
   + 18 z9 + 33 z10 + 13 z11 + 46 z12 + 20 z13 + 32 z14 + 41 z15 + 39 z16
   + 36 z17 + 41 z18 + 48 z19 + 40 z20 <= 200
 constraints2_6_&_11: z6 - z11 = 0
 constraints2_11_&_19: z11 - z19 = 0
 constraints2_13_&_16: z13 - z16 = 0
 constraints3_1_|_9: z1 + z9 <= 1
 constraints3_1_|_15: z1 + z15 <= 1
 constraints3_3_|_7: z3 + z7 <= 1
 constraints3_4_|_5: z4 + z5 <= 1
 constraints3_5_|_15: z5 + z15 <= 1
 constraints3_6_|_9: z6 + z9 <= 1
 constraints3_6_|_12: z6 + z12 <= 1
 constraints3_6_|_15: z6 + z15 <= 1
 constraints3_6_|_18: z6 + z18 <= 1
 constraints3_7_|_13: z7 + z13 <= 1
 constraints3_7_|_16: z7 + z16 <= 1
 constraints3_7_|_18: z7 + z18 <= 1
 constraints3_8_|_10: z8 + z10 <= 1
 constraints3_8_|_20: z8 + z20 <= 1
 constraints3_9_|_14: z9 + z14 <= 1
 constraints3_11_|_18: z11 + z18 <= 1
 constraints3_12_|_15: z12 + z15 <= 1
 constraints3_18_|_20: z18 + z20 <= 1
Bounds
Binaries
 z1 z2 z3 z4 z5 z6 z7 z8 z9 z10 z11 z12 z13 z14 z15 z16 z17 z18 z19 z20
End
